c generated by sgen
p cnf 129 268
-2 -3 -4 0
-1 -3 -4 0
-1 -2 -4 0
-1 -2 -3 0
-6 -7 -8 0
-5 -7 -8 0
-5 -6 -8 0
-5 -6 -7 0
-10 -11 -12 0
-9 -11 -12 0
-9 -10 -12 0
-9 -10 -11 0
-14 -15 -16 0
-13 -15 -16 0
-13 -14 -16 0
-13 -14 -15 0
-18 -19 -20 0
-17 -19 -20 0
-17 -18 -20 0
-17 -18 -19 0
-22 -23 -24 0
-21 -23 -24 0
-21 -22 -24 0
-21 -22 -23 0
-26 -27 -28 0
-25 -27 -28 0
-25 -26 -28 0
-25 -26 -27 0
-30 -31 -32 0
-29 -31 -32 0
-29 -30 -32 0
-29 -30 -31 0
-34 -35 -36 0
-33 -35 -36 0
-33 -34 -36 0
-33 -34 -35 0
-38 -39 -40 0
-37 -39 -40 0
-37 -38 -40 0
-37 -38 -39 0
-42 -43 -44 0
-41 -43 -44 0
-41 -42 -44 0
-41 -42 -43 0
-46 -47 -48 0
-45 -47 -48 0
-45 -46 -48 0
-45 -46 -47 0
-50 -51 -52 0
-49 -51 -52 0
-49 -50 -52 0
-49 -50 -51 0
-54 -55 -56 0
-53 -55 -56 0
-53 -54 -56 0
-53 -54 -55 0
-58 -59 -60 0
-57 -59 -60 0
-57 -58 -60 0
-57 -58 -59 0
-62 -63 -64 0
-61 -63 -64 0
-61 -62 -64 0
-61 -62 -63 0
-66 -67 -68 0
-65 -67 -68 0
-65 -66 -68 0
-65 -66 -67 0
-70 -71 -72 0
-69 -71 -72 0
-69 -70 -72 0
-69 -70 -71 0
-74 -75 -76 0
-73 -75 -76 0
-73 -74 -76 0
-73 -74 -75 0
-78 -79 -80 0
-77 -79 -80 0
-77 -78 -80 0
-77 -78 -79 0
-82 -83 -84 0
-81 -83 -84 0
-81 -82 -84 0
-81 -82 -83 0
-86 -87 -88 0
-85 -87 -88 0
-85 -86 -88 0
-85 -86 -87 0
-90 -91 -92 0
-89 -91 -92 0
-89 -90 -92 0
-89 -90 -91 0
-94 -95 -96 0
-93 -95 -96 0
-93 -94 -96 0
-93 -94 -95 0
-98 -99 -100 0
-97 -99 -100 0
-97 -98 -100 0
-97 -98 -99 0
-102 -103 -104 0
-101 -103 -104 0
-101 -102 -104 0
-101 -102 -103 0
-106 -107 -108 0
-105 -107 -108 0
-105 -106 -108 0
-105 -106 -107 0
-110 -111 -112 0
-109 -111 -112 0
-109 -110 -112 0
-109 -110 -111 0
-114 -115 -116 0
-113 -115 -116 0
-113 -114 -116 0
-113 -114 -115 0
-118 -119 -120 0
-117 -119 -120 0
-117 -118 -120 0
-117 -118 -119 0
-122 -123 -124 0
-121 -123 -124 0
-121 -122 -124 0
-121 -122 -123 0
-125 -126 -127 0
-125 -126 -128 0
-125 -126 -129 0
-125 -127 -128 0
-125 -127 -129 0
-125 -128 -129 0
-126 -127 -128 0
-126 -127 -129 0
-126 -128 -129 0
-127 -128 -129 0
121 51 77 0
81 51 77 0
81 121 77 0
81 121 51 0
90 61 118 0
23 61 118 0
23 90 118 0
23 90 61 0
40 113 127 0
83 113 127 0
83 40 127 0
83 40 113 0
124 53 48 0
117 53 48 0
117 124 48 0
117 124 53 0
74 38 50 0
60 38 50 0
60 74 50 0
60 74 38 0
26 42 107 0
32 42 107 0
32 26 107 0
32 26 42 0
19 125 9 0
21 125 9 0
21 19 9 0
21 19 125 0
43 66 76 0
119 66 76 0
119 43 76 0
119 43 66 0
41 128 70 0
86 128 70 0
86 41 70 0
86 41 128 0
85 116 10 0
47 116 10 0
47 85 10 0
47 85 116 0
6 71 78 0
75 71 78 0
75 6 78 0
75 6 71 0
88 55 52 0
2 55 52 0
2 88 52 0
2 88 55 0
91 18 103 0
87 18 103 0
87 91 103 0
87 91 18 0
73 46 64 0
106 46 64 0
106 73 64 0
106 73 46 0
34 65 8 0
20 65 8 0
20 34 8 0
20 34 65 0
12 96 122 0
68 96 122 0
68 12 122 0
68 12 96 0
105 94 112 0
28 94 112 0
28 105 112 0
28 105 94 0
7 101 111 0
126 101 111 0
126 7 111 0
126 7 101 0
39 29 33 0
72 29 33 0
72 39 33 0
72 39 29 0
82 89 30 0
56 89 30 0
56 82 30 0
56 82 89 0
84 97 109 0
15 97 109 0
15 84 109 0
15 84 97 0
5 1 120 0
31 1 120 0
31 5 120 0
31 5 1 0
59 14 35 0
54 14 35 0
54 59 35 0
54 59 14 0
62 27 13 0
17 27 13 0
17 62 13 0
17 62 27 0
37 108 4 0
100 108 4 0
100 37 4 0
100 37 108 0
22 110 3 0
67 110 3 0
67 22 3 0
67 22 110 0
79 98 102 0
57 98 102 0
57 79 102 0
57 79 98 0
123 114 104 0
63 114 104 0
63 123 104 0
63 123 114 0
11 44 80 0
36 44 80 0
36 11 80 0
36 11 44 0
92 16 93 0
49 16 93 0
49 92 93 0
49 92 16 0
95 58 69 0
115 58 69 0
115 95 69 0
115 95 58 0
25 129 99 0
25 129 24 0
25 129 45 0
25 99 24 0
25 99 45 0
25 24 45 0
129 99 24 0
129 99 45 0
129 24 45 0
99 24 45 0
